40	100	100	100
12	95	100
90	30	100
37	37	100
49	98	100
16	64	100
84	23	100
27	56	100
61	94	100
56	52	100
60	37	100
93	88	100
75	93	100
74	22	100
30	92	100
94	38	100
52	78	100
65	23	100
42	7	100
11	59	100
89	3	100
22	26	100
26	34	100
53	34	100
85	33	100
26	56	100
66	98	100
77	34	100
69	83	100
18	84	100
79	81	100
19	55	100
69	73	100
24	24	100
24	89	100
29	97	100
30	75	100
50	4	100
20	4	100
36	47	100
21	60	100
